# polarization calculated with hubbard one solver with DFT+DMFT

# DATASETS AND OPTIONS
ndtset 2
jdtset 1 2
getwfk -1
dilatmx 1.1
ecutsm  0.5


#polarization PARAMETERS
berryopt2 4
rfdir2 1 1 1
symmorphi 0
nband2 49
nbdbuf2 0


##### CONVERGENCE PARAMETERS
nstep 100
nline2 16
nnsclo2 30
ecut  20
pawecutdg 30
toldfe 6.7d-4
tolsym2 1.0e-8
occopt 3 tsmear 1200 K


# spin PARAMETERS
nsppol 2
nspden 2
nspinor 1
spinat 0 0 0
       0 0 0
       0 0 9
       0 0 -9
       0 0 0
       0 0 0
       0 0 0
       0 0 0
       0 0 0
       0 0 0

#Definition of the atom types
natom 10
ntypat 3
typat 1 1 2 2 3 3 3 3 3 3
znucl 83 26 8

            acell      3*10.384762725
            rprim      5.7717643067E-01  0.0000000000E+00  8.1661947557E-01
                      -2.8858821534E-01  4.9984945143E-01  8.1661947557E-01
                      -2.8858821534E-01 -4.9984945143E-01  8.1661947557E-01
             xred     -4.6642089156E-03 -4.6642089156E-03 -4.6642089156E-03
                       4.9533579108E-01  4.9533579108E-01  4.9533579108E-01
                       2.2337336195E-01  2.2337336195E-01  2.2337336195E-01
                       7.2337336195E-01  7.2337336195E-01  7.2337336195E-01
                       3.9049770438E-01  5.3534685657E-01  9.3593628602E-01
                       3.5346856570E-02  8.9049770438E-01  4.3593628602E-01
                       4.3593628602E-01  3.5346856570E-02  8.9049770438E-01
                       8.9049770438E-01  4.3593628602E-01  3.5346856570E-02
                       5.3534685657E-01  9.3593628602E-01  3.9049770438E-01
                       9.3593628602E-01  3.9049770438E-01  5.3534685657E-01


# K-POINTS
kptopt 1
ngkpt 6 6 6
nshiftk 1
shiftk 0.5 0.5 0.5
istwfk *1

# LDA+DMFT
usedmft1 0
usedmft2 1
dmftbandi  30
dmftbandf  49
dmft_solv 2
dmft_nwli 100000
dmft_nwlo 100
dmftcheck 0
dmft_rslf 1
dmft_mxsf 0.7
dmft_dc 1


# LDA+U
usepawu    1    
dmatpuopt  1   # choose expression of the density matrix
lpawu   -1   2   -1   # U on d-orbitals of Fe, no U on O and Bi
upawu  0.0 1.0  0.0  ev
jpawu  0.0 0.0  0.0  ev  

