# DOS calulated for both DFT+U and DFT+DMFT

# DATASETS AND OPTIONS
ndtset 2
jdtset 1 2
#fftalg 112  # Needed to preserve old behaviour
#prtvol 4
#pawprtvol 3
getwfk -1
prtdos 3
dosdeltae 0.00005
dilatmx 1.1
ecutsm  0.5
symmorphi 0


##### CONVERGENCE PARAMETERS
nstep 100
nline2 16
nnsclo2 30
ecut  20
pawecutdg 30
toldfe 1.0d-6
tolvrs2 1.0d-5
tolsym2 1.0e-8
occopt 3 tsmear 1200 K


#spin parameter
nsppol 2
nspden 2
nspinor 1
spinat 0 0 0
       0 0 0
       0 0 9
       0 0 -9
       0 0 0
       0 0 0
       0 0 0
       0 0 0
       0 0 0
       0 0 0

#Definition of the atom types
natom 10
ntypat 3
typat 1 1 2 2 3 3 3 3 3 3
znucl 83 26 8

            acell      3*10.46818238
            rprim      5.7448667577E-01  0.0000000000E+00  8.1851393352E-01
                      -2.8724333788E-01  4.9752005535E-01  8.1851393352E-01
                      -2.8724333788E-01 -4.9752005535E-01  8.1851393352E-01
             xred     -3.9584505416E-03 -3.9584505416E-03 -3.9584505416E-03
                       4.9604154946E-01  4.9604154946E-01  4.9604154946E-01
                       2.2065585228E-01  2.2065585228E-01  2.2065585228E-01
                       7.2065585228E-01  7.2065585228E-01  7.2065585228E-01
                       3.9177041307E-01  5.3583319403E-01  9.3618899116E-01
                       3.5833194028E-02  8.9177041307E-01  4.3618899116E-01
                       4.3618899116E-01  3.5833194028E-02  8.9177041307E-01
                       8.9177041307E-01  4.3618899116E-01  3.5833194028E-02
                       5.3583319403E-01  9.3618899116E-01  3.9177041307E-01
                       9.3618899116E-01  3.9177041307E-01  5.3583319403E-01

# K-POINTS
kptopt 1
ngkpt 8 8 8
nshiftk 1
shiftk 0.5 0.5 0.5
istwfk *1

# LDA+DMFT
usedmft1 0
usedmft2 1
dmftbandi  30
dmftbandf  54
#dmft_solv 2
#dmft_iter 1
dmft_nwli 100000
dmft_nwlo 100
dmftcheck 0
dmft_rslf 1
dmft_mxsf 0.7
#dmft_tollc 0.00001
dmft_dc 1
dmftctqmc_gmove 0
dmftctqmc_order 50

#CTQMC
dmft_solv 5 # CTQMC
dmftqmc_l 50
dmftqmc_n 1.d6
dmftqmc_therm 10000
#

# LDA+U
usepawu    1    
dmatpuopt  1   # choose expression of the density matrix
lpawu   -1   2   -1   # U on d-orbitals of Fe, no U on oxygen and Bi
upawu  0.0 6.0  0.0  ev 
jpawu  0.0 0.0  0.0  ev  

