#band calculation  with different values of U

#DATASETS AND OPTIONS
ndtset 2
getwfk -1
occopt 7
fftalg 112
tsmear 0.01



#CONVERGENCE PARAMETERS
nstep 100
ecut  20
pawecutdg 30
toldfe1 1.0d-6
ecutsm  0.5
diemac 12.0


#spin parameter
nsppol 2 
nspden 2
nspinor 1
spinat 0 0 0
       0 0 0
       0 0 9
       0 0 -9
       0 0 0
       0 0 0
       0 0 0
       0 0 0
       0 0 0
       0 0 0


#Definition of the atom types
natom 10
ntypat 3
typat 1 1 2 2 3 3 3 3 3 3

#Definition of the atoms
znucl 83 26 8

            acell      3*10.313642227
            rprim      5.7953468474E-01  0.0000000000E+00  8.1494757450E-01
                      -2.8976734237E-01  5.0189175936E-01  8.1494757450E-01
                      -2.8976734237E-01 -5.0189175936E-01  8.1494757450E-01
             xred     -6.0279072957E-03 -6.0279072957E-03 -6.0279072957E-03
                       4.9397209270E-01  4.9397209270E-01  4.9397209270E-01
                       2.2397105333E-01  2.2397105333E-01  2.2397105333E-01
                       7.2397105333E-01  7.2397105333E-01  7.2397105333E-01
                       3.9172883634E-01  5.3475676732E-01  9.3606125031E-01
                       3.4756767316E-02  8.9172883634E-01  4.3606125031E-01
                       4.3606125031E-01  3.4756767316E-02  8.9172883634E-01
                       8.9172883634E-01  4.3606125031E-01  3.4756767316E-02
                       5.3475676732E-01  9.3606125031E-01  3.9172883634E-01
                       9.3606125031E-01  3.9172883634E-01  5.3475676732E-01


##### K-POINTS
kptopt1 1 
ngkpt 8 8 8
nshiftk1 1
shiftk1 0.5 0.5 0.5
#istwfk *1

#Dataset 2 : the band structure
iscf2    -2
getden2  -1
nband2 54
ndivsm 10
kptopt -4
kptbounds
   +0.50000  +0.50000  +0.00000  # F
   +0.00000  +0.00000  +0.00000  # $\Gamma$
   +0.50000  +0.50000  +0.50000  # Z
   +0.50000  +0.00000  +0.00000  # L
   +0.00000  +0.00000  +0.00000  # $\Gamma$
tolwfr2  1.0d-12
enunit2  1             # Will output the eigenenergies in eV 


#DFT+U
usepawu   1
lpawu   -1 2 -1
upawu   0.0 0.0 0.0  ev
jpawu   0.0 0.0 0.0  ev

