# BAND calculated for both DFT+U and DFT+DMFT

# DATASETS AND OPTIONS
ndtset 4
getwfk -1
prtden 1



##### CONVERGENCE PARAMETERS
nstep 100
nline3 16
nnsclo3 30
nline4 16
nnsclo4 30
ecut  20
pawecutdg 30

# band parameters DFT+U
nbandkss2  2
kssform2   3
iscf2    -2
getden2  -1
ndivsm 10
kptopt -4
kptbounds
   +0.50000  +0.50000  +0.00000  # F
   +0.00000  +0.00000  +0.00000  # $\Gamma$
   +0.50000  +0.50000  +0.50000  # Z
   +0.50000  +0.00000  +0.00000  # L
   +0.00000  +0.00000  +0.00000  # $\Gamma$
tolwfr2  1.0d-12
enunit2  1             # Will output the eigenenergies in eV 


toldfe 1.0d-4
tolsym3 1.0e-8
nband  54
occopt 3 tsmear 1200 K


# SPIN PARAMETERS
nsppol 2
nspden 2
nspinor 1
spinat 0 0 0
       0 0 0
       0 0 9
       0 0 -9
       0 0 0
       0 0 0
       0 0 0
       0 0 0
       0 0 0
       0 0 0
#Definition of the atom types
natom 10
ntypat 3
typat 1 1 2 2 3 3 3 3 3 3
znucl 83 26 8


            acell      3*10.46818238
            rprim      5.7448667577E-01  0.0000000000E+00  8.1851393352E-01
                      -2.8724333788E-01  4.9752005535E-01  8.1851393352E-01
                      -2.8724333788E-01 -4.9752005535E-01  8.1851393352E-01
             xred     -3.9584505416E-04 -3.9584505416E-04 -3.9584505416E-04
                       4.9604154946E-01  4.9604154946E-01  4.9604154946E-01
                       2.2065585228E-01  2.2065585228E-01  2.2065585228E-01
                       7.2065585228E-01  7.2065585228E-01  7.2065585228E-01
                       3.9177041307E-01  5.3583319403E-01  9.3618899116E-01
                       3.5833194028E-02  8.9177041307E-01  4.3618899116E-01
                       4.3618899116E-01  3.5833194028E-02  8.9177041307E-01
                       8.9177041307E-01  4.3618899116E-01  3.5833194028E-02
                       5.3583319403E-01  9.3618899116E-01  3.9177041307E-01
                       9.3618899116E-01  3.9177041307E-01  5.3583319403E-01


##### K-POINTS
kptopt1 1
kptopt3 1
ngkpt 4 4 4
ngkpt2 10 10 10
ngkpt4 10 10 10
nshiftk1 1
shiftk1 0.5 0.5 0.5
istwfk1 *1
nshiftk3 1
shiftk3 0.5 0.5 0.5
istwfk3 *1

## band parameters DFT+DMFT
nbandkss4  2
kssform4   3
iscf4    -2
getden4  -1
tolwfr4  1.0d-12
enunit4  1             # Will output the eigenenergies in eV 



# LDA+DMFT
usedmft1 0
usedmft2 0
usedmft3 1
usedmft4 1
dmftbandi  30
dmftbandf  54
#dmft_solv 2
dmft_iter 5
dmft_nwli 100000
dmft_nwlo 100
dmftcheck 0
dmft_rslf 1
dmft_mxsf 0.7
#dmft_tollc 0.00001
dmft_dc 1
dmftctqmc_gmove 0
dmftctqmc_order 50

# CTQMC
dmft_solv 5 # CTQMC
dmftqmc_l 50
dmftqmc_n 1.d6
dmftqmc_therm 10000


# LDA+U
usepawu    1    
dmatpuopt  1   # choose expression of the density matrix
lpawu   -1   2   -1   # U on d-orbitals of Fe, no U on O and Bi
upawu  0.0 6.0  0.0  ev  
jpawu  0.0 0.0  0.0  ev 
